(declare-rel state (Bool Bool Bool Bool Bool Bool Bool Bool Bool Bool Bool Bool Bool Bool))
(declare-var |_OK_| Bool)
(declare-var |_OK_.next| Bool)
(declare-var |call__SWITCH1_.flby| Bool)
(declare-var |call__SWITCH1_.flby.next| Bool)
(declare-var |call__SWITCH1_.ite_keyword| Bool)
(declare-var |call__SWITCH1_.ite_keyword.next| Bool)
(declare-var |call__SWITCH1_.ite_keyword2| Bool)
(declare-var |call__SWITCH1_.ite_keyword2.next| Bool)
(declare-var |call__SWITCH1_.level| Bool)
(declare-var |call__SWITCH1_.level.next| Bool)
(declare-var |call__SWITCH_.flby| Bool)
(declare-var |call__SWITCH_.flby.next| Bool)
(declare-var |call__SWITCH_.ite_keyword| Bool)
(declare-var |call__SWITCH_.ite_keyword.next| Bool)
(declare-var |call__SWITCH_.ite_keyword2| Bool)
(declare-var |call__SWITCH_.ite_keyword2.next| Bool)
(declare-var |call__SWITCH_.level| Bool)
(declare-var |call__SWITCH_.level.next| Bool)
(declare-var |ite_keyword| Bool)
(declare-var |ite_keyword.next| Bool)
(declare-var |level| Bool)
(declare-var |level.next| Bool)
(declare-var |level1| Bool)
(declare-var |level1.next| Bool)
(declare-var |param_initial| Bool)
(declare-var |param_set| Bool)
(declare-var |param_set.next| Bool)
(declare-var |param_treset| Bool)
(declare-var |param_treset.next| Bool)

(define-fun .init () Bool
(let ((.def_51 (not call__SWITCH1_.ite_keyword)))
(let ((.def_49 (not param_treset)))
(let ((.def_52 (or .def_49 .def_51)))
(let ((.def_48 (not call__SWITCH_.ite_keyword)))
(let ((.def_50 (or .def_48 .def_49)))
(let ((.def_53 (and .def_50 .def_52)))
(let ((.def_46 (= call__SWITCH_.flby param_initial)))
(let ((.def_54 (and .def_46 .def_53)))
(let ((.def_45 (= call__SWITCH1_.flby param_initial)))
(let ((.def_55 (and .def_45 .def_54)))
(let ((.def_34 (= level1 level)))
(let ((.def_35 (= ite_keyword .def_34)))
(let ((.def_24 (and param_set param_treset)))
(let ((.def_36 (or .def_24 .def_35)))
(let ((.def_33 (= call__SWITCH_.level level)))
(let ((.def_37 (and .def_33 .def_36)))
(let ((.def_31 (= ite_keyword _OK_)))
(let ((.def_38 (and .def_31 .def_37)))
(let ((.def_29 (= call__SWITCH1_.level level1)))
(let ((.def_39 (and .def_29 .def_38)))
(let ((.def_25 (not .def_24)))
(let ((.def_27 (or .def_25 ite_keyword)))
(let ((.def_40 (and .def_27 .def_39)))
(let ((.def_20 (= call__SWITCH1_.ite_keyword2 call__SWITCH1_.ite_keyword)))
(let ((.def_21 (or param_set .def_20)))
(let ((.def_16 (not param_set)))
(let ((.def_18 (or .def_16 call__SWITCH1_.ite_keyword2)))
(let ((.def_22 (and .def_18 .def_21)))
(let ((.def_41 (and .def_22 .def_40)))
(let ((.def_14 (= call__SWITCH_.flby call__SWITCH_.level)))
(let ((.def_42 (and .def_14 .def_41)))
(let ((.def_11 (= call__SWITCH1_.flby call__SWITCH1_.level)))
(let ((.def_43 (and .def_11 .def_42)))
(let ((.def_56 (and .def_43 .def_55)))
.def_56)))))))))))))))))))))))))))))))))))

(define-fun .trans () Bool
(let ((.def_111 (= call__SWITCH_.level call__SWITCH_.ite_keyword.next)))
(let ((.def_112 (or param_treset.next .def_111)))
(let ((.def_109 (not call__SWITCH_.ite_keyword.next)))
(let ((.def_107 (not param_treset.next)))
(let ((.def_110 (or .def_107 .def_109)))
(let ((.def_113 (and .def_110 .def_112)))
(let ((.def_106 (not call__SWITCH1_.ite_keyword.next)))
(let ((.def_108 (or .def_106 .def_107)))
(let ((.def_114 (and .def_108 .def_113)))
(let ((.def_104 (= call__SWITCH1_.level call__SWITCH1_.ite_keyword.next)))
(let ((.def_105 (or param_treset.next .def_104)))
(let ((.def_115 (and .def_105 .def_114)))
(let ((.def_101 (= call__SWITCH_.ite_keyword2.next call__SWITCH_.ite_keyword.next)))
(let ((.def_96 (not call__SWITCH_.level)))
(let ((.def_97 (and param_set.next .def_96)))
(let ((.def_102 (or .def_97 .def_101)))
(let ((.def_98 (not .def_97)))
(let ((.def_99 (or call__SWITCH_.ite_keyword2.next .def_98)))
(let ((.def_103 (and .def_99 .def_102)))
(let ((.def_116 (and .def_103 .def_115)))
(let ((.def_95 (= call__SWITCH_.flby.next call__SWITCH_.ite_keyword2.next)))
(let ((.def_117 (and .def_95 .def_116)))
(let ((.def_93 (= call__SWITCH1_.flby.next call__SWITCH1_.ite_keyword2.next)))
(let ((.def_118 (and .def_93 .def_117)))
(let ((.def_82 (= level1.next level.next)))
(let ((.def_83 (= ite_keyword.next .def_82)))
(let ((.def_72 (and param_set.next param_treset.next)))
(let ((.def_84 (or .def_72 .def_83)))
(let ((.def_81 (= call__SWITCH_.level.next level.next)))
(let ((.def_85 (and .def_81 .def_84)))
(let ((.def_79 (= ite_keyword.next _OK_.next)))
(let ((.def_86 (and .def_79 .def_85)))
(let ((.def_77 (= call__SWITCH1_.level.next level1.next)))
(let ((.def_87 (and .def_77 .def_86)))
(let ((.def_73 (not .def_72)))
(let ((.def_75 (or .def_73 ite_keyword.next)))
(let ((.def_88 (and .def_75 .def_87)))
(let ((.def_68 (= call__SWITCH1_.ite_keyword2.next call__SWITCH1_.ite_keyword.next)))
(let ((.def_69 (or param_set.next .def_68)))
(let ((.def_64 (not param_set.next)))
(let ((.def_66 (or .def_64 call__SWITCH1_.ite_keyword2.next)))
(let ((.def_70 (and .def_66 .def_69)))
(let ((.def_89 (and .def_70 .def_88)))
(let ((.def_62 (= call__SWITCH_.flby.next call__SWITCH_.level.next)))
(let ((.def_90 (and .def_62 .def_89)))
(let ((.def_59 (= call__SWITCH1_.flby.next call__SWITCH1_.level.next)))
(let ((.def_91 (and .def_59 .def_90)))
(let ((.def_34 (= level1 level)))
(let ((.def_35 (= ite_keyword .def_34)))
(let ((.def_24 (and param_set param_treset)))
(let ((.def_36 (or .def_24 .def_35)))
(let ((.def_33 (= call__SWITCH_.level level)))
(let ((.def_37 (and .def_33 .def_36)))
(let ((.def_31 (= ite_keyword _OK_)))
(let ((.def_38 (and .def_31 .def_37)))
(let ((.def_29 (= call__SWITCH1_.level level1)))
(let ((.def_39 (and .def_29 .def_38)))
(let ((.def_25 (not .def_24)))
(let ((.def_27 (or .def_25 ite_keyword)))
(let ((.def_40 (and .def_27 .def_39)))
(let ((.def_20 (= call__SWITCH1_.ite_keyword2 call__SWITCH1_.ite_keyword)))
(let ((.def_21 (or param_set .def_20)))
(let ((.def_16 (not param_set)))
(let ((.def_18 (or .def_16 call__SWITCH1_.ite_keyword2)))
(let ((.def_22 (and .def_18 .def_21)))
(let ((.def_41 (and .def_22 .def_40)))
(let ((.def_14 (= call__SWITCH_.flby call__SWITCH_.level)))
(let ((.def_42 (and .def_14 .def_41)))
(let ((.def_11 (= call__SWITCH1_.flby call__SWITCH1_.level)))
(let ((.def_43 (and .def_11 .def_42)))
(let ((.def_92 (and .def_43 .def_91)))
(let ((.def_119 (and .def_92 .def_118)))
.def_119)))))))))))))))))))))))))))))))))))))))))))))))))))))))))))))))))))))))))

(define-fun .property () Bool
_OK_)

(rule (=> .init (state |_OK_| |call__SWITCH1_.flby| |call__SWITCH1_.ite_keyword| |call__SWITCH1_.ite_keyword2| |call__SWITCH1_.level| |call__SWITCH_.flby| |call__SWITCH_.ite_keyword| |call__SWITCH_.ite_keyword2| |call__SWITCH_.level| |ite_keyword| |level| |level1| |param_set| |param_treset|)))
(rule (=> (and (state |_OK_| |call__SWITCH1_.flby| |call__SWITCH1_.ite_keyword| |call__SWITCH1_.ite_keyword2| |call__SWITCH1_.level| |call__SWITCH_.flby| |call__SWITCH_.ite_keyword| |call__SWITCH_.ite_keyword2| |call__SWITCH_.level| |ite_keyword| |level| |level1| |param_set| |param_treset|) .trans) (state |_OK_.next| |call__SWITCH1_.flby.next| |call__SWITCH1_.ite_keyword.next| |call__SWITCH1_.ite_keyword2.next| |call__SWITCH1_.level.next| |call__SWITCH_.flby.next| |call__SWITCH_.ite_keyword.next| |call__SWITCH_.ite_keyword2.next| |call__SWITCH_.level.next| |ite_keyword.next| |level.next| |level1.next| |param_set.next| |param_treset.next|)))
(declare-rel benchmark_query ())
(rule (=> (and (state |_OK_| |call__SWITCH1_.flby| |call__SWITCH1_.ite_keyword| |call__SWITCH1_.ite_keyword2| |call__SWITCH1_.level| |call__SWITCH_.flby| |call__SWITCH_.ite_keyword| |call__SWITCH_.ite_keyword2| |call__SWITCH_.level| |ite_keyword| |level| |level1| |param_set| |param_treset|) (not .property)) benchmark_query))
(query benchmark_query)
